# Basic
ISPIN = 2
#MAGMOM = 1*0.5 2*5

# Initialization
ISTART = 0
ICHARG = 2

# Electronic relaxation
ENCUT = 600
NELMIN = 5
NELM = 500
EDIFF = 1E-04
EDIFFG= -1E-03

# Ionic relaxation
IBRION = -1
#ISIF = 2
NSW = 1

# Density of states related
ISMEAR = -5
SIGMA = 0.2

# Output
LCHARG = .TRUE.
LAECHG = .TRUE.
LWAVE = .FALSE.

# Specific
IVDW = 11
NCORE=4
LORBIT=11
