C1O2Ti2
   1.0
     3.015905230000000     0.000000000000000     0.000000000000000
    -1.507952610000000     2.610550110000000     0.000000000000000
     0.000000000000000     0.000000000000000    24.700000000000000
    C    O   Ti
    1    2    2
direct
   0.002516290000000   0.001827380000000   0.499973220000000  # C
   0.669436890000000   0.335520510000000   0.589961300000000  # O
   0.335531350000000   0.667989780000000   0.410065070000000  # O
   0.335419220000000   0.667984090000000   0.552778680000000  # Ti
   0.668646250000000   0.334478240000000   0.447221720000000  # Ti
